750
[151,152,153,154,155,156,157,158,160,161,162,163,164,165,166,167,168,169,170,172,173,174,175,176,177,179,180,182,183,184,185,187,188,192,194,195,196,197,198,199,200,201,202,204,207,208,209,212,213,216,219,221,222,226,228,230,232,233,238,240,242,243,244,245,246,247,248,249,251,254,256,257,259,260,261,262,265,266,267,268,272,273,274,276,277,280,281,283,284,285,287,288,289,291,292,293,294,296,297,298,299,301,302,303,304,305,306,307,308,309,311,312,313,314,315,316,317,318,319,321,324,325,326,327,328,330,332,334,335,336,337,338,339,341,343,344,345,347,348,351,355,357,359,361,362,364,366,367,368,370,371,372,373,375,376,377,379,380,381,382,383,384,385,386,387,389,390,391,393,394,395,396,397,398,400,402,405,406,407,409,411,412,413,414,415,418,419,420,422,426,427,429,431,432,433,435,436,437,441,442,443,444,447,448,449,450,451,452,455,457,458,459,460,461,462,464,469,470,471,472,473,474,475,477,478,480,481,482,483,484,485,487,489,490,492,493,494,495,496,499,500,502,505,507,508,509,511,512,513,515,516,517,519,520,521,522,523,528,529,531,534,535,536,537,539,540,541,542,543,544,546,547,549,550,551,552,555,557,562,563,564,565,566,567,570,571,573,575,576,578,581,584,585,587,590,591,596,597,598,599,600]
[1,1,1,1,1,1,1,1,2,2,3,1,2,2,2,1,1,2,1,1,1,2,4,1,1,3,2,3,5,3,2,1,1,4,2,1,2,1,1,1,1,1,2,2,1,2,3,1,2,1,1,3,1,3,2,1,2,1,3,3,2,2,1,2,2,1,1,1,1,1,1,2,1,3,1,1,1,1,3,1,1,1,1,2,1,2,1,1,3,2,1,1,2,1,3,1,1,1,1,2,1,3,1,3,1,4,1,1,2,3,1,2,1,3,3,1,1,3,2,2,1,1,1,2,2,1,1,1,2,2,2,1,3,2,2,1,2,1,3,1,2,2,2,1,3,1,2,1,4,1,3,5,3,1,1,5,2,2,1,3,1,1,1,4,2,2,1,1,1,1,1,3,2,1,2,1,1,2,1,1,1,1,2,2,1,1,1,1,1,1,2,2,3,1,2,4,1,1,2,1,1,1,2,2,1,2,1,1,1,5,1,2,3,1,3,2,2,1,2,1,2,1,2,1,1,1,1,2,1,2,1,1,2,2,1,1,1,2,1,2,2,4,1,1,1,1,1,1,2,1,2,1,1,2,3,1,1,1,1,2,1,1,2,1,1,1,1,1,1,1,3,1,2,2,1,1,1,1,1,1,2,1,3,2,2,2,2,2,2,2,2,2,1,1,1,1,5,2,2,4,1]
